\ Model Routes
\ LP format - for model browsing. Use MPS format to capture full model detail.
Maximize
  1533.228206194839 R{0,0} + 2591.679024458567 R{0,1}
   + 2591.679024458567 R{0,2} - 249.2301939667805 R{0,3}
   + 222.8649545650627 R{0,4} + 892.5014194710873 R{0,5}
   + 2510.887820311061 R{0,6} + 1533.228206194839 R{0,7}
   + 1879.058482919291 R{0,8} + 230.5085459237135 R{0,9}
   + 2751.56916868127 R{0,10} + 1666.406004646734 R{0,11}
   + 2536.463853558342 R{0,12} + 1092.193455917817 R{0,13}
   + 1495.813311923331 R{0,14} + 1621.358849226974 R{0,15}
   + 1460.819546070009 R{0,16} + 1481.593100565009 R{0,17}
   + 2198.66316785607 R{0,18} + 1111.498840710694 R{0,19}
   + 1301.104188599709 R{0,20} + 1448.212911132905 R{0,21}
   + 1054.532923217643 R{0,22} + 1350.41346686594 R{0,23}
   + 1241.849221213481 R{0,24} + 2362.768709333832 R{0,25}
   + 1341.715823002477 R{0,26} + 2056.079114058008 R{0,27}
   + 1905.468853941285 R{0,28} + 1351.467402770973 R{0,29}
   + 748.8433775476128 R{0,30} + 1109.399972080142 R{0,31}
   + 2312.789562770226 R{0,32} + 1674.295699738689 R{0,33}
   + 1661.906110363923 R{0,34} + 1785.304144549159 R{0,35}
   + 1413.828820649249 R{0,36} + 1586.83564295116 R{0,37}
   + 1326.578583234752 R{0,38} + 943.4477753098472 R{0,39}
   + 1326.578583234752 R{0,40} + 643.0700245081601 R{0,41}
   + 868.0308952395762 R{0,42} + 1104.379568933999 R{0,43}
   + 1351.162420067594 R{0,44} + 1467.681995527797 R{0,45}
   + 1837.114005497908 R{0,46} + 745.8566218314587 R{0,47}
   - 256.140831891889 R{1,0} + 165.2076460747254 R{1,1}
   + 1217.268818571461 R{1,2} + 1217.268818571461 R{1,3}
   + 1011.356120416341 R{1,4} + 1208.087804319804 R{1,5}
   + 1011.356120416341 R{1,6} + 343.4583612143375 R{1,7}
   + 1161.728175484572 R{1,8} + 2217.217930790818 R{1,9}
   + 1048.441863306432 R{1,10} + 2631.641631751275 R{1,11}
   + 577.2546879448998 R{1,12} + 1394.459671834523 R{1,13}
   + 1448.900781122897 R{1,14} + 1351.643442804498 R{1,15}
   + 1375.072033083296 R{1,16} + 1610.424806275086 R{1,17}
   + 1096.106022914165 R{1,18} + 832.5788021882154 R{1,19}
   + 1538.122709066282 R{1,20} + 1096.106022914165 R{1,21}
   + 990.3158034615797 R{1,22} + 474.2995156316583 R{1,23}
   + 1214.653028651613 R{1,24} + 740.1008316448373 R{1,25}
   + 812.16902405465 R{1,26} + 859.4202074297641 R{1,27}
   + 832.5788021882154 R{1,28} + 813.9295796844385 R{1,29}
   + 519.4143911348251 R{1,30} + 1122.572961581997 R{1,31}
   + 776.5551530539053 R{1,32} + 713.1662463377869 R{1,33}
   + 653.2188619780368 R{1,34} + 548.1282636712594 R{1,35}
   + 466.1512155265586 R{1,36} + 519.4143911348251 R{1,37}
   + 512.2304672805755 R{1,38} + 443.1808800865142 R{1,39}
   + 1418.895139178279 R{1,40} - 278.4443928850388 R{2,0}
   - 59.13410337035452 R{2,1} + 602.7748664658451 R{2,2}
   + 1100.505917706273 R{2,3} + 916.1855209384714 R{2,4}
   + 658.9260592062412 R{2,5} + 166.915855543099 R{2,6}
   + 1400.154335019599 R{2,7} + 775.6918497929551 R{2,8}
   + 1160.513948887701 R{2,9} + 819.3752605616277 R{2,10}
   + 526.8174798093175 R{2,11} + 594.1507212540391 R{2,12}
   + 1005.777703503751 R{2,13} + 786.0200774820436 R{2,14}
   + 661.1183809175574 R{2,15} + 177.8426664283916 R{2,16}
   + 565.729976977299 R{2,17} + 333.8988868568047 R{2,18}
   + 547.8103915775331 R{2,19} + 1018.042154460408 R{2,20}
   + 618.9565277145877 R{2,21} + 1072.951544811347 R{2,22}
   + 395.796393489625 R{2,23} + 659.555717454111 R{2,24}
   + 395.796393489625 R{2,25} + 805.0616085244567 R{2,26}
   + 144.4600408296817 R{2,27} + 786.0200774820436 R{2,28}
   + 395.796393489625 R{2,29} + 144.4600408296817 R{2,30}
   + 395.796393489625 R{2,31} + 514.8624679471038 R{2,32}
   - 260.2482995389823 R{3,0} + 637.8926476026959 R{3,1}
   + 2105.287740450534 R{3,2} + 2466.290457720655 R{3,3}
   + 2262.082641353778 R{3,4} + 1685.957818511334 R{3,5}
   + 1701.030031952023 R{3,6} + 1531.744257075403 R{3,7}
   + 1643.539643100966 R{3,8} + 2471.950087009421 R{3,9}
   + 1843.076907387578 R{3,10} + 1960.547563857679 R{3,11}
   + 1014.533841458351 R{3,12} + 1766.532708282026 R{3,13}
   + 1503.906301733637 R{3,14} + 1940.31543023765 R{3,15}
   + 402.1384784616362 R{3,16} + 1408.098198474864 R{3,17}
   + 1239.680791113321 R{3,18} + 1241.034382568305 R{3,19}
   + 1790.628199726548 R{3,20} + 902.9645080451735 R{3,21}
   + 721.994563012662 R{3,22} + 120.3811625677244 R{3,23}
   + 1558.106659114172 R{3,24} + 1301.840274387031 R{3,25}
   + 2082.907051087119 R{3,26} + 2553.627697382859 R{3,27}
   + 2462.329444921919 R{3,28} + 2390.712579557965 R{3,29}
   + 1954.204692766396 R{3,30} + 2406.521825120538 R{3,31}
   + 1646.604168027688 R{3,32} + 1734.929232777933 R{3,33}
   + 1639.512575153765 R{3,34} + 806.3322833717202 R{3,35}
   + 751.891982670177 R{3,36} + 1061.411973456336 R{3,37}
   + 1063.416686044994 R{3,38} + 2027.908257742682 R{3,39}
   + 1448.464205614453 R{3,40} + 1842.962655993891 R{3,41}
   + 2534.877738638805 R{3,42} + 1538.694161918615 R{3,43}
   + 2343.248754510658 R{3,44} - 242.5208875955131 R{4,0}
   + 1066.379443184683 R{4,1} + 1576.196574514046 R{4,2}
   + 2039.10049209481 R{4,3} + 1677.537747161161 R{4,4}
   + 1220.258549113244 R{4,5} + 1999.796578310687 R{4,6}
   + 1322.20588614273 R{4,7} + 2001.49084361888 R{4,8}
   + 834.5399854113894 R{4,9} + 1323.499637794155 R{4,10}
   + 723.9586041387831 R{4,11} + 809.3859410864113 R{4,12}
   + 723.9586041387831 R{4,13} + 788.8819785758326 R{4,14}
   + 1515.533641313769 R{4,15} + 618.6774285101644 R{4,16}
   + 1314.00912176271 R{4,17} + 1186.952836140712 R{4,18}
   + 1318.375634969519 R{4,19} + 1104.086093039468 R{4,20}
   + 1240.137768061734 R{4,21} + 923.5341334840905 R{4,22}
   + 1737.62077505918 R{4,23} + 1113.846742449485 R{4,24}
   + 1943.429804621456 R{4,25} + 1935.962017523675 R{4,26}
   + 810.557925176415 R{4,27} + 1613.501212985351 R{4,28}
   + 1570.970095052946 R{4,29} + 1032.460642868677 R{4,30}
   + 681.587580775376 R{4,31} + 816.4404732550745 R{4,32}
   + 841.1428631453776 R{4,33} + 582.2957386074806 R{4,34}
   + 1084.268772807152 R{4,35} + 887.184212101494 R{4,36}
   - 231.9775664337766 R{5,0} + 166.8396544238635 R{5,1}
   + 729.4065638506388 R{5,2} + 189.5146926655762 R{5,3}
   + 1159.126021446673 R{5,4} + 469.6272923775961 R{5,5}
   + 289.4599244857655 R{5,6} + 887.3004714969477 R{5,7}
   + 1041.202808648717 R{5,8} + 414.4928896980455 R{5,9}
   + 736.2041623594807 R{5,10} + 997.5805993536369 R{5,11}
   + 513.3577039609318 R{5,12} + 899.2270902557668 R{5,13}
   + 571.284170695557 R{5,14} + 439.3500531351842 R{5,15}
   + 987.1418765680701 R{5,16} + 671.0651393442885 R{5,17}
   + 888.8872950157465 R{5,18} + 511.1512941060198 R{5,19}
   + 866.1144926430113 R{5,20} + 369.4895836932353 R{5,21}
   + 615.7577030717338 R{5,22} + 813.9897172874807 R{5,23}
   + 763.340679282372 R{5,24} + 528.1231451140882 R{5,25}
   + 615.7577030717338 R{5,26} + 515.276020938554 R{5,27}
   + 528.1231451140882 R{5,28} + 301.464897820436 R{5,29}
   - 231.1436095783099 R{6,0} + 688.2930565472423 R{6,1}
   + 1203.884640462779 R{6,2} + 1174.748546423381 R{6,3}
   + 1062.185115250783 R{6,4} + 830.0311111965837 R{6,5}
   + 1140.821135569126 R{6,6} + 1829.713073160671 R{6,7}
   + 1760.364109139733 R{6,8} + 1162.349541835437 R{6,9}
   + 1906.498430430217 R{6,10} + 788.2201112603764 R{6,11}
   + 664.1427951568248 R{6,12} + 328.9945578346909 R{6,13}
   + 933.7458607470744 R{6,14} + 166.627678835717 R{6,15}
   + 1273.742581131167 R{6,16} + 565.5996705581553 R{6,17}
   + 1761.169774665712 R{6,18} + 1888.847475084987 R{6,19}
   + 420.1472156778575 R{6,20} + 831.8244242992072 R{6,21}
   + 1215.27532478877 R{6,22} + 1292.994721468302 R{6,23}
   + 1541.652708713394 R{6,24} + 1388.828786865454 R{6,25}
   + 1076.617027555853 R{6,26} + 602.3882905948018 R{6,27}
   + 462.0445191749104 R{6,28} + 1071.010476298698 R{6,29}
   + 908.991768037517 R{6,30} + 462.0445191749104 R{6,31}
   + 1058.404175851846 R{6,32} + 1477.048861648513 R{6,33}
   + 666.5227047350432 R{6,34} + 813.8535977097681 R{6,35}
   + 533.4115221546756 R{6,36} + 1076.625874893248 R{6,37}
   + 899.3800752175223 R{6,38} + 1032.103448494547 R{6,39}
Subject To
 R00: R{0,0} <= 1
 R01: R{0,1} <= 1
 R02: R{0,2} <= 1
 R03: R{0,3} <= 1
 R04: R{0,4} <= 1
 R05: R{0,5} <= 1
 R06: R{0,6} <= 1
 R07: R{0,7} <= 1
 R08: R{0,8} <= 1
 R09: R{0,9} <= 1
 R010: R{0,10} <= 1
 R011: R{0,11} <= 1
 R012: R{0,12} <= 1
 R013: R{0,13} <= 1
 R014: R{0,14} <= 1
 R015: R{0,15} <= 1
 R016: R{0,16} <= 1
 R017: R{0,17} <= 1
 R018: R{0,18} <= 1
 R019: R{0,19} <= 1
 R020: R{0,20} <= 1
 R021: R{0,21} <= 1
 R022: R{0,22} <= 1
 R023: R{0,23} <= 1
 R024: R{0,24} <= 1
 R025: R{0,25} <= 1
 R026: R{0,26} <= 1
 R027: R{0,27} <= 1
 R028: R{0,28} <= 1
 R029: R{0,29} <= 1
 R030: R{0,30} <= 1
 R031: R{0,31} <= 1
 R032: R{0,32} <= 1
 R033: R{0,33} <= 1
 R034: R{0,34} <= 1
 R035: R{0,35} <= 1
 R036: R{0,36} <= 1
 R037: R{0,37} <= 1
 R038: R{0,38} <= 1
 R039: R{0,39} <= 1
 R040: R{0,40} <= 1
 R041: R{0,41} <= 1
 R042: R{0,42} <= 1
 R043: R{0,43} <= 1
 R044: R{0,44} <= 1
 R045: R{0,45} <= 1
 R046: R{0,46} <= 1
 R047: R{0,47} <= 1
 R048: R{1,0} <= 1
 R049: R{1,1} <= 1
 R050: R{1,2} <= 1
 R051: R{1,3} <= 1
 R052: R{1,4} <= 1
 R053: R{1,5} <= 1
 R054: R{1,6} <= 1
 R055: R{1,7} <= 1
 R056: R{1,8} <= 1
 R057: R{1,9} <= 1
 R058: R{1,10} <= 1
 R059: R{1,11} <= 1
 R060: R{1,12} <= 1
 R061: R{1,13} <= 1
 R062: R{1,14} <= 1
 R063: R{1,15} <= 1
 R064: R{1,16} <= 1
 R065: R{1,17} <= 1
 R066: R{1,18} <= 1
 R067: R{1,19} <= 1
 R068: R{1,20} <= 1
 R069: R{1,21} <= 1
 R070: R{1,22} <= 1
 R071: R{1,23} <= 1
 R072: R{1,24} <= 1
 R073: R{1,25} <= 1
 R074: R{1,26} <= 1
 R075: R{1,27} <= 1
 R076: R{1,28} <= 1
 R077: R{1,29} <= 1
 R078: R{1,30} <= 1
 R079: R{1,31} <= 1
 R080: R{1,32} <= 1
 R081: R{1,33} <= 1
 R082: R{1,34} <= 1
 R083: R{1,35} <= 1
 R084: R{1,36} <= 1
 R085: R{1,37} <= 1
 R086: R{1,38} <= 1
 R087: R{1,39} <= 1
 R088: R{1,40} <= 1
 R089: R{2,0} <= 1
 R090: R{2,1} <= 1
 R091: R{2,2} <= 1
 R092: R{2,3} <= 1
 R093: R{2,4} <= 1
 R094: R{2,5} <= 1
 R095: R{2,6} <= 1
 R096: R{2,7} <= 1
 R097: R{2,8} <= 1
 R098: R{2,9} <= 1
 R099: R{2,10} <= 1
 R0100: R{2,11} <= 1
 R0101: R{2,12} <= 1
 R0102: R{2,13} <= 1
 R0103: R{2,14} <= 1
 R0104: R{2,15} <= 1
 R0105: R{2,16} <= 1
 R0106: R{2,17} <= 1
 R0107: R{2,18} <= 1
 R0108: R{2,19} <= 1
 R0109: R{2,20} <= 1
 R0110: R{2,21} <= 1
 R0111: R{2,22} <= 1
 R0112: R{2,23} <= 1
 R0113: R{2,24} <= 1
 R0114: R{2,25} <= 1
 R0115: R{2,26} <= 1
 R0116: R{2,27} <= 1
 R0117: R{2,28} <= 1
 R0118: R{2,29} <= 1
 R0119: R{2,30} <= 1
 R0120: R{2,31} <= 1
 R0121: R{2,32} <= 1
 R0122: R{3,0} <= 1
 R0123: R{3,1} <= 1
 R0124: R{3,2} <= 1
 R0125: R{3,3} <= 1
 R0126: R{3,4} <= 1
 R0127: R{3,5} <= 1
 R0128: R{3,6} <= 1
 R0129: R{3,7} <= 1
 R0130: R{3,8} <= 1
 R0131: R{3,9} <= 1
 R0132: R{3,10} <= 1
 R0133: R{3,11} <= 1
 R0134: R{3,12} <= 1
 R0135: R{3,13} <= 1
 R0136: R{3,14} <= 1
 R0137: R{3,15} <= 1
 R0138: R{3,16} <= 1
 R0139: R{3,17} <= 1
 R0140: R{3,18} <= 1
 R0141: R{3,19} <= 1
 R0142: R{3,20} <= 1
 R0143: R{3,21} <= 1
 R0144: R{3,22} <= 1
 R0145: R{3,23} <= 1
 R0146: R{3,24} <= 1
 R0147: R{3,25} <= 1
 R0148: R{3,26} <= 1
 R0149: R{3,27} <= 1
 R0150: R{3,28} <= 1
 R0151: R{3,29} <= 1
 R0152: R{3,30} <= 1
 R0153: R{3,31} <= 1
 R0154: R{3,32} <= 1
 R0155: R{3,33} <= 1
 R0156: R{3,34} <= 1
 R0157: R{3,35} <= 1
 R0158: R{3,36} <= 1
 R0159: R{3,37} <= 1
 R0160: R{3,38} <= 1
 R0161: R{3,39} <= 1
 R0162: R{3,40} <= 1
 R0163: R{3,41} <= 1
 R0164: R{3,42} <= 1
 R0165: R{3,43} <= 1
 R0166: R{3,44} <= 1
 R0167: R{4,0} <= 1
 R0168: R{4,1} <= 1
 R0169: R{4,2} <= 1
 R0170: R{4,3} <= 1
 R0171: R{4,4} <= 1
 R0172: R{4,5} <= 1
 R0173: R{4,6} <= 1
 R0174: R{4,7} <= 1
 R0175: R{4,8} <= 1
 R0176: R{4,9} <= 1
 R0177: R{4,10} <= 1
 R0178: R{4,11} <= 1
 R0179: R{4,12} <= 1
 R0180: R{4,13} <= 1
 R0181: R{4,14} <= 1
 R0182: R{4,15} <= 1
 R0183: R{4,16} <= 1
 R0184: R{4,17} <= 1
 R0185: R{4,18} <= 1
 R0186: R{4,19} <= 1
 R0187: R{4,20} <= 1
 R0188: R{4,21} <= 1
 R0189: R{4,22} <= 1
 R0190: R{4,23} <= 1
 R0191: R{4,24} <= 1
 R0192: R{4,25} <= 1
 R0193: R{4,26} <= 1
 R0194: R{4,27} <= 1
 R0195: R{4,28} <= 1
 R0196: R{4,29} <= 1
 R0197: R{4,30} <= 1
 R0198: R{4,31} <= 1
 R0199: R{4,32} <= 1
 R0200: R{4,33} <= 1
 R0201: R{4,34} <= 1
 R0202: R{4,35} <= 1
 R0203: R{4,36} <= 1
 R0204: R{5,0} <= 1
 R0205: R{5,1} <= 1
 R0206: R{5,2} <= 1
 R0207: R{5,3} <= 1
 R0208: R{5,4} <= 1
 R0209: R{5,5} <= 1
 R0210: R{5,6} <= 1
 R0211: R{5,7} <= 1
 R0212: R{5,8} <= 1
 R0213: R{5,9} <= 1
 R0214: R{5,10} <= 1
 R0215: R{5,11} <= 1
 R0216: R{5,12} <= 1
 R0217: R{5,13} <= 1
 R0218: R{5,14} <= 1
 R0219: R{5,15} <= 1
 R0220: R{5,16} <= 1
 R0221: R{5,17} <= 1
 R0222: R{5,18} <= 1
 R0223: R{5,19} <= 1
 R0224: R{5,20} <= 1
 R0225: R{5,21} <= 1
 R0226: R{5,22} <= 1
 R0227: R{5,23} <= 1
 R0228: R{5,24} <= 1
 R0229: R{5,25} <= 1
 R0230: R{5,26} <= 1
 R0231: R{5,27} <= 1
 R0232: R{5,28} <= 1
 R0233: R{5,29} <= 1
 R0234: R{6,0} <= 1
 R0235: R{6,1} <= 1
 R0236: R{6,2} <= 1
 R0237: R{6,3} <= 1
 R0238: R{6,4} <= 1
 R0239: R{6,5} <= 1
 R0240: R{6,6} <= 1
 R0241: R{6,7} <= 1
 R0242: R{6,8} <= 1
 R0243: R{6,9} <= 1
 R0244: R{6,10} <= 1
 R0245: R{6,11} <= 1
 R0246: R{6,12} <= 1
 R0247: R{6,13} <= 1
 R0248: R{6,14} <= 1
 R0249: R{6,15} <= 1
 R0250: R{6,16} <= 1
 R0251: R{6,17} <= 1
 R0252: R{6,18} <= 1
 R0253: R{6,19} <= 1
 R0254: R{6,20} <= 1
 R0255: R{6,21} <= 1
 R0256: R{6,22} <= 1
 R0257: R{6,23} <= 1
 R0258: R{6,24} <= 1
 R0259: R{6,25} <= 1
 R0260: R{6,26} <= 1
 R0261: R{6,27} <= 1
 R0262: R{6,28} <= 1
 R0263: R{6,29} <= 1
 R0264: R{6,30} <= 1
 R0265: R{6,31} <= 1
 R0266: R{6,32} <= 1
 R0267: R{6,33} <= 1
 R0268: R{6,34} <= 1
 R0269: R{6,35} <= 1
 R0270: R{6,36} <= 1
 R0271: R{6,37} <= 1
 R0272: R{6,38} <= 1
 R0273: R{6,39} <= 1
 R1_0: R{0,0} + R{0,1} + R{0,2} + R{0,3} + R{0,4} + R{0,5} + R{0,6}
   + R{0,7} + R{0,8} + R{0,9} + R{0,10} + R{0,11} + R{0,12} + R{0,13}
   + R{0,14} + R{0,15} + R{0,16} + R{0,17} + R{0,18} + R{0,19} + R{0,20}
   + R{0,21} + R{0,22} + R{0,23} + R{0,24} + R{0,25} + R{0,26} + R{0,27}
   + R{0,28} + R{0,29} + R{0,30} + R{0,31} + R{0,32} + R{0,33} + R{0,34}
   + R{0,35} + R{0,36} + R{0,37} + R{0,38} + R{0,39} + R{0,40} + R{0,41}
   + R{0,42} + R{0,43} + R{0,44} + R{0,45} + R{0,46} + R{0,47} <= 1
 R1_1: R{1,0} + R{1,1} + R{1,2} + R{1,3} + R{1,4} + R{1,5} + R{1,6}
   + R{1,7} + R{1,8} + R{1,9} + R{1,10} + R{1,11} + R{1,12} + R{1,13}
   + R{1,14} + R{1,15} + R{1,16} + R{1,17} + R{1,18} + R{1,19} + R{1,20}
   + R{1,21} + R{1,22} + R{1,23} + R{1,24} + R{1,25} + R{1,26} + R{1,27}
   + R{1,28} + R{1,29} + R{1,30} + R{1,31} + R{1,32} + R{1,33} + R{1,34}
   + R{1,35} + R{1,36} + R{1,37} + R{1,38} + R{1,39} + R{1,40} <= 1
 R1_2: R{2,0} + R{2,1} + R{2,2} + R{2,3} + R{2,4} + R{2,5} + R{2,6}
   + R{2,7} + R{2,8} + R{2,9} + R{2,10} + R{2,11} + R{2,12} + R{2,13}
   + R{2,14} + R{2,15} + R{2,16} + R{2,17} + R{2,18} + R{2,19} + R{2,20}
   + R{2,21} + R{2,22} + R{2,23} + R{2,24} + R{2,25} + R{2,26} + R{2,27}
   + R{2,28} + R{2,29} + R{2,30} + R{2,31} + R{2,32} <= 1
 R1_3: R{3,0} + R{3,1} + R{3,2} + R{3,3} + R{3,4} + R{3,5} + R{3,6}
   + R{3,7} + R{3,8} + R{3,9} + R{3,10} + R{3,11} + R{3,12} + R{3,13}
   + R{3,14} + R{3,15} + R{3,16} + R{3,17} + R{3,18} + R{3,19} + R{3,20}
   + R{3,21} + R{3,22} + R{3,23} + R{3,24} + R{3,25} + R{3,26} + R{3,27}
   + R{3,28} + R{3,29} + R{3,30} + R{3,31} + R{3,32} + R{3,33} + R{3,34}
   + R{3,35} + R{3,36} + R{3,37} + R{3,38} + R{3,39} + R{3,40} + R{3,41}
   + R{3,42} + R{3,43} + R{3,44} <= 1
 R1_4: R{4,0} + R{4,1} + R{4,2} + R{4,3} + R{4,4} + R{4,5} + R{4,6}
   + R{4,7} + R{4,8} + R{4,9} + R{4,10} + R{4,11} + R{4,12} + R{4,13}
   + R{4,14} + R{4,15} + R{4,16} + R{4,17} + R{4,18} + R{4,19} + R{4,20}
   + R{4,21} + R{4,22} + R{4,23} + R{4,24} + R{4,25} + R{4,26} + R{4,27}
   + R{4,28} + R{4,29} + R{4,30} + R{4,31} + R{4,32} + R{4,33} + R{4,34}
   + R{4,35} + R{4,36} <= 1
 R1_5: R{5,0} + R{5,1} + R{5,2} + R{5,3} + R{5,4} + R{5,5} + R{5,6}
   + R{5,7} + R{5,8} + R{5,9} + R{5,10} + R{5,11} + R{5,12} + R{5,13}
   + R{5,14} + R{5,15} + R{5,16} + R{5,17} + R{5,18} + R{5,19} + R{5,20}
   + R{5,21} + R{5,22} + R{5,23} + R{5,24} + R{5,25} + R{5,26} + R{5,27}
   + R{5,28} + R{5,29} <= 1
 R1_6: R{6,0} + R{6,1} + R{6,2} + R{6,3} + R{6,4} + R{6,5} + R{6,6}
   + R{6,7} + R{6,8} + R{6,9} + R{6,10} + R{6,11} + R{6,12} + R{6,13}
   + R{6,14} + R{6,15} + R{6,16} + R{6,17} + R{6,18} + R{6,19} + R{6,20}
   + R{6,21} + R{6,22} + R{6,23} + R{6,24} + R{6,25} + R{6,26} + R{6,27}
   + R{6,28} + R{6,29} + R{6,30} + R{6,31} + R{6,32} + R{6,33} + R{6,34}
   + R{6,35} + R{6,36} + R{6,37} + R{6,38} + R{6,39} <= 1
 R2_0: 7 R{0,0} + 7 R{0,1} + 7 R{0,2} + 7 R{0,6} + 7 R{0,7} + 7 R{0,8}
   + 7 R{0,10} + 7 R{0,11} + 7 R{0,12} + 7 R{0,13} + 7 R{0,14} + 7 R{0,15}
   + 7 R{0,16} + 7 R{0,17} + 7 R{0,18} + 7 R{0,21} + 7 R{0,23} + 7 R{0,25}
   + 7 R{0,26} + 7 R{0,27} + 7 R{0,29} + 7 R{0,31} + 7 R{0,32} + 7 R{0,33}
   + 7 R{0,34} + 7 R{0,35} + 7 R{0,37} + 7 R{0,42} + 7 R{0,43} + 7 R{0,45}
   + 7 R{0,46} + 7 R{6,14} <= 7
 R2_1: 10 R{2,4} + 10 R{2,8} + 10 R{3,1} + 10 R{3,2} + 10 R{3,3}
   + 10 R{3,5} + 10 R{3,7} + 10 R{3,12} + 10 R{3,18} + 9 R{5,5}
   + 10 R{5,25} + 10 R{5,28} <= 10
 R2_2: <= 0
 R2_3: 4 R{5,1} + 4 R{5,2} + 4 R{5,3} + 4 R{5,4} + 4 R{5,5} + 4 R{5,6}
   + 4 R{5,7} + 4 R{5,10} + 4 R{5,15} + 4 R{5,21} <= 4
 R2_4: <= 0
 R2_5: 5 R{5,1} + 5 R{5,2} + 5 R{5,3} + 5 R{5,5} + 5 R{5,17} + 5 R{5,25}
   + 5 R{5,28} <= 5
 R2_6: 10 R{1,1} + 10 R{1,2} + 10 R{1,3} + 10 R{1,4} + 10 R{1,5}
   + 10 R{1,6} + 10 R{1,7} + 10 R{1,8} + 10 R{1,9} + 10 R{1,11}
   + 10 R{1,13} + 10 R{1,14} + 10 R{1,16} + 10 R{1,17} + 10 R{1,18}
   + 10 R{1,21} + 10 R{1,24} + 10 R{1,25} + 10 R{1,26} + 10 R{1,27}
   + 10 R{1,29} + 10 R{1,31} + 10 R{1,39} + 10 R{1,40} + 10 R{2,6}
   + 10 R{2,24} + 10 R{3,29} + 10 R{5,13} + 10 R{5,18} <= 10
 R2_7: 6 R{1,1} + 6 R{1,2} + 6 R{1,3} + 6 R{1,4} + 6 R{1,6} + 6 R{1,8}
   + 6 R{1,9} + 6 R{1,10} + 6 R{1,12} + 6 R{1,13} + 6 R{1,27} <= 6
 R2_8: <= 0
 R2_9: 12 R{4,1} + 12 R{4,2} + 12 R{4,3} + 12 R{4,4} + 12 R{4,5}
   + 12 R{4,6} + 12 R{4,7} + 12 R{4,8} + 12 R{4,9} + 12 R{4,10}
   + 12 R{4,11} + 12 R{4,12} + 12 R{4,13} + 12 R{4,15} + 12 R{4,16}
   + 12 R{4,17} + 12 R{4,18} + 12 R{4,19} + 12 R{4,20} + 12 R{4,21}
   + 12 R{4,22} + 12 R{4,23} + 12 R{4,24} + 12 R{4,25} + 12 R{4,26}
   + 12 R{4,27} + 12 R{4,29} + 12 R{4,30} + 12 R{4,31} + 12 R{4,32}
   + 12 R{4,34} + 12 R{4,35} + 12 R{6,39} <= 12
 R2_10: 8 R{6,1} + 8 R{6,2} + 8 R{6,3} + 8 R{6,6} + 8 R{6,9} + 8 R{6,10}
   + 8 R{6,16} + 8 R{6,23} + 8 R{6,26} <= 8
 R2_11: 15 R{3,19} + 15 R{3,38} + 15 R{4,28} + 15 R{4,33} + 15 R{4,36}
   <= 15
 R2_12: <= 0
 R2_13: <= 0
 R2_14: <= 0
 R2_15: 11 R{0,0} + 11 R{0,1} + 11 R{0,2} + 11 R{0,6} + 11 R{0,7}
   + 11 R{0,8} + 11 R{0,12} + 11 R{0,13} + 11 R{0,15} + 11 R{0,16}
   + 11 R{0,17} + 11 R{0,19} + 11 R{0,29} + 11 R{0,33} + 11 R{0,34}
   + 11 R{0,37} + 11 R{0,46} + 11 R{4,1} + 11 R{4,2} + 11 R{4,8}
   + 11 R{4,9} + 11 R{4,21} <= 11
 R2_16: 5 R{0,14} + 5 R{0,20} + 5 R{0,22} + 5 R{0,25} + 5 R{0,26}
   + 5 R{0,31} <= 5
 R2_17: 11 R{3,25} + 11 R{4,18} + 11 R{4,22} + 11 R{4,30} + 11 R{4,32}
   + 11 R{6,25} + 11 R{6,39} <= 11
 R2_18: <= 0
 R2_19: 11 R{0,6} + 11 R{0,8} + 11 R{0,15} + 11 R{0,46} + 11 R{1,12}
   + 11 R{1,38} + 11 R{2,9} + 11 R{2,13} + 11 R{4,1} + 11 R{4,2}
   + 11 R{4,3} + 11 R{4,4} + 11 R{4,6} + 11 R{4,8} + 11 R{4,9} + 11 R{4,20}
   + 11 R{4,21} + 11 R{4,29} + 11 R{5,11} + 11 R{5,27} <= 11
 R2_20: 13 R{0,8} + 13 R{0,10} + 13 R{1,4} + 13 R{1,6} + 5 R{1,9}
   + 5 R{1,11} + 13 R{1,15} + 13 R{2,3} + 13 R{2,5} + 13 R{2,7} + 13 R{2,8}
   + 4 R{2,9} + 13 R{2,11} + 13 R{2,12} + 13 R{2,22} + 13 R{2,32}
   + 10 R{3,2} + 10 R{3,3} + 10 R{3,4} + 13 R{3,6} + 10 R{3,9} + 13 R{3,10}
   + 10 R{3,11} + 10 R{3,13} + 13 R{3,17} + 10 R{3,26} + 10 R{3,27}
   + 10 R{3,28} + 10 R{3,30} + 10 R{3,31} + 10 R{3,32} + 13 R{3,33}
   + 10 R{3,39} + 10 R{3,41} + 10 R{3,42} + 10 R{3,43} + 10 R{3,44}
   + 13 R{4,15} + 13 R{5,4} + 13 R{5,8} + 13 R{5,9} + 13 R{6,12} <= 13
 R2_21: <= 0
 R2_22: 10 R{0,6} + 10 R{0,8} + 10 R{0,11} + 10 R{0,14} + 10 R{0,15}
   + 10 R{0,17} + 10 R{0,19} + 10 R{0,21} + 10 R{0,23} + 10 R{0,24}
   + 10 R{0,28} + 10 R{0,29} + 10 R{0,35} + 10 R{0,37} + 10 R{0,46}
   + 10 R{3,11} + 10 R{3,25} + 10 R{3,30} + 10 R{3,32} + 10 R{3,43}
   + 10 R{6,21} + 10 R{6,27} <= 10
 R2_23: 14 R{3,4} + 14 R{3,15} + 14 R{3,27} + 14 R{3,32} + 14 R{3,40}
   + 14 R{3,42} + 14 R{4,3} + 14 R{4,4} + 14 R{4,6} + 14 R{4,7}
   + 14 R{4,10} + 14 R{4,15} + 14 R{4,18} + 14 R{4,23} + 14 R{4,24}
   + 14 R{4,29} + 14 R{4,30} + 14 R{4,34} + 14 R{4,35} <= 14
 R2_24: 10 R{0,10} + 10 R{0,11} + 10 R{0,14} + 10 R{0,21} + 10 R{0,25}
   + 10 R{0,32} + 8 R{1,11} + 10 R{2,5} + 8 R{2,7} + 10 R{2,11} + 8 R{2,20}
   + 8 R{2,21} + 8 R{2,22} + 8 R{2,26} + 10 R{2,32} + 10 R{3,1} + 10 R{3,2}
   + 10 R{3,3} + 10 R{3,4} + 10 R{3,6} + 10 R{3,10} + 10 R{3,11}
   + 10 R{3,13} + 10 R{3,16} + 10 R{3,17} + 10 R{3,19} + 10 R{3,26}
   + 10 R{3,27} + 10 R{3,31} + 10 R{3,35} + 10 R{3,43} + 10 R{4,25}
   + 10 R{4,26} + 10 R{5,6} + 10 R{6,17} <= 10
 R2_25: 13 R{0,0} + 13 R{0,1} + 13 R{0,2} + 5 R{0,6} + 13 R{0,7} + 5 R{0,8}
   + 13 R{0,10} + 13 R{0,12} + 13 R{0,13} + 5 R{0,15} + 13 R{0,16}
   + 5 R{0,17} + 13 R{0,18} + 5 R{0,19} + 13 R{0,20} + 5 R{0,21}
   + 13 R{0,23} + 5 R{0,24} + 13 R{0,25} + 13 R{0,26} + 13 R{0,27}
   + 13 R{0,29} + 13 R{0,31} + 13 R{0,32} + 13 R{0,33} + 13 R{0,34}
   + 13 R{0,43} + 13 R{0,45} + 5 R{0,46} + 13 R{2,7} + 13 R{2,20}
   + 13 R{3,14} + 13 R{4,1} + 13 R{4,2} + 13 R{4,3} + 13 R{4,4} + 13 R{4,5}
   + 13 R{4,6} + 13 R{4,7} + 13 R{4,8} + 13 R{4,11} + 13 R{4,13}
   + 13 R{4,17} + 13 R{4,19} + 13 R{4,20} + 13 R{4,24} + 13 R{4,25}
   + 13 R{4,26} + 13 R{4,27} + 13 R{4,29} + 13 R{4,31} + 13 R{6,13} <= 13
 R2_26: 6 R{0,39} + 6 R{1,17} + 6 R{1,20} + 6 R{1,34} + 6 R{2,10}
   + 6 R{2,26} + 6 R{5,1} + 6 R{5,2} + 6 R{5,3} + 6 R{5,4} + 6 R{5,5}
   + 6 R{5,6} + 6 R{5,7} + 6 R{5,8} + 6 R{5,10} + 6 R{5,12} + 6 R{5,15}
   + 6 R{5,16} + 6 R{5,17} + 6 R{5,18} + 6 R{5,20} + 6 R{5,22} + 6 R{5,23}
   + 6 R{5,24} + 6 R{5,26} <= 6
 R2_27: 5 R{0,26} + 5 R{0,31} + 5 R{0,33} + 5 R{0,44} + 5 R{1,5} + 5 R{1,9}
   + 5 R{1,11} + 5 R{1,14} + 5 R{1,16} + 5 R{1,20} + 5 R{1,23} + 5 R{1,25}
   + 5 R{1,29} + 5 R{1,30} + 5 R{1,33} + 5 R{1,35} + 5 R{1,37} + 5 R{1,40}
   + 5 R{2,12} + 5 R{2,16} + 5 R{2,18} + 5 R{2,27} + 5 R{2,30} + 5 R{3,9}
   + 5 R{3,11} + 5 R{3,16} + 5 R{3,19} + 5 R{3,21} + 5 R{3,23} + 5 R{3,25}
   + 5 R{3,27} + 5 R{3,30} + 5 R{3,33} + 5 R{3,36} + 5 R{3,38} + 5 R{5,8}
   + 5 R{5,12} + 5 R{5,15} + 5 R{5,19} + 5 R{5,21} + 5 R{5,29} + 5 R{6,1}
   + 5 R{6,2} + 5 R{6,3} + 5 R{6,4} + 5 R{6,5} + 5 R{6,6} + 5 R{6,7}
   + 5 R{6,8} + 5 R{6,9} + 5 R{6,10} + 5 R{6,11} + 5 R{6,12} + 5 R{6,14}
   + 5 R{6,15} + 5 R{6,16} + 5 R{6,17} + 5 R{6,18} + 5 R{6,19} + 5 R{6,21}
   + 5 R{6,22} + 5 R{6,23} + 5 R{6,24} + 5 R{6,25} + 5 R{6,26} + 5 R{6,27}
   + 5 R{6,29} + 5 R{6,30} + 5 R{6,32} + 5 R{6,33} + 5 R{6,34} + 5 R{6,35}
   + 5 R{6,37} + 5 R{6,38} + 5 R{6,39} <= 5
 R2_28: <= 0
 R2_29: <= 0
 R2_30: <= 0
 R2_31: <= 0
 R2_32: 7 R{0,4} + 7 R{0,5} + 7 R{0,9} + 7 R{0,47} + 7 R{2,14} + 7 R{2,18}
   + 7 R{2,28} + 7 R{3,9} + 7 R{3,14} + 7 R{3,21} + 7 R{3,26} + 7 R{3,36}
   + 7 R{3,44} + 7 R{5,7} + 7 R{5,8} + 7 R{5,9} + 7 R{5,11} + 7 R{5,13}
   + 7 R{5,19} + 7 R{5,20} + 7 R{5,23} <= 7
 R2_33: 12 R{0,31} + 12 R{1,11} + 12 R{1,14} + 12 R{1,20} + 12 R{1,24}
   + 12 R{1,29} + 12 R{1,35} + 12 R{1,38} + 12 R{3,19} + 12 R{3,38} <= 12
 R2_34: 5 R{0,0} + 5 R{0,1} + 5 R{0,2} + 5 R{0,6} + 5 R{0,7} + 5 R{0,8}
   + 5 R{0,10} + 5 R{0,11} + 5 R{0,12} + 5 R{0,15} + 5 R{0,16} + 5 R{0,18}
   + 5 R{0,19} + 5 R{0,21} + 5 R{0,24} + 5 R{0,25} + 5 R{0,26} + 5 R{0,27}
   + 5 R{0,28} + 5 R{0,32} + 5 R{0,33} + 5 R{0,34} + 5 R{0,35} + 5 R{0,36}
   + 5 R{0,38} + 5 R{0,40} + 5 R{0,43} + 5 R{0,45} + 5 R{0,46} + 5 R{3,9}
   + 5 R{3,10} + 5 R{3,14} + 5 R{3,17} + 5 R{3,19} + 5 R{3,37} + 5 R{3,38}
   <= 5
 R2_35: <= 0
 R2_36: 15 R{1,1} + 15 R{1,2} + 15 R{1,3} + 15 R{1,4} + 15 R{1,5}
   + 15 R{1,6} + 15 R{1,9} + 15 R{1,11} + 15 R{1,13} + 15 R{1,14}
   + 15 R{1,15} + 15 R{1,16} + 15 R{1,26} + 15 R{1,27} + 15 R{1,31}
   + 15 R{1,39} <= 16
 R2_37: 5 R{0,47} + 5 R{3,1} + 5 R{3,2} + 5 R{3,3} + 5 R{3,4} + 5 R{3,9}
   + 5 R{3,11} + 5 R{3,13} + 5 R{3,14} + 5 R{3,15} + 5 R{3,21} + 5 R{3,26}
   + 5 R{3,27} + 5 R{3,28} + 5 R{3,29} + 5 R{3,30} + 5 R{3,31} + 5 R{3,32}
   + 5 R{3,34} + 5 R{3,39} + 5 R{3,40} + 5 R{3,41} + 5 R{3,42} + 5 R{3,43}
   + 5 R{3,44} + 5 R{5,14} + 5 R{5,19} + 5 R{5,24} <= 5
 R2_38: <= 0
 R2_39: 15 R{0,0} + 15 R{0,1} + 15 R{0,2} + 15 R{0,6} + 15 R{0,7}
   + 15 R{0,8} + 15 R{0,12} + 15 R{0,13} + 15 R{0,16} + 15 R{0,17}
   + 15 R{0,19} + 15 R{0,23} + 15 R{0,27} + 15 R{0,29} + 15 R{0,33}
   + 15 R{0,34} + 15 R{0,37} + 15 R{0,42} + 15 R{0,45} + 15 R{0,46} <= 17
 R2_40: 15 R{1,11} + 15 R{2,1} + 15 R{2,2} + 15 R{2,3} + 15 R{2,4}
   + 15 R{2,5} + 15 R{2,6} + 15 R{2,8} + 15 R{2,9} + 15 R{2,10}
   + 15 R{2,13} + 15 R{2,14} + 15 R{2,15} + 15 R{2,17} + 15 R{2,20}
   + 15 R{2,28} <= 15
 R2_41: 5 R{0,0} + 5 R{0,1} + 5 R{0,2} + 5 R{0,7} + 5 R{0,10} + 5 R{0,12}
   + 5 R{0,18} + 5 R{0,20} + 5 R{0,22} + 5 R{0,25} + 5 R{0,27} + 5 R{0,30}
   + 5 R{0,32} + 5 R{0,33} + 5 R{0,36} + 5 R{0,38} + 5 R{0,40} + 5 R{0,42}
   + 5 R{0,44} + 5 R{0,45} + 5 R{1,2} + 5 R{1,3} + 5 R{1,4} + 5 R{1,6}
   + 5 R{1,8} + 5 R{1,9} + 5 R{1,10} + 5 R{1,12} + 5 R{1,13} + 5 R{1,15}
   + 5 R{1,17} + 5 R{1,18} + 5 R{1,19} + 5 R{1,21} + 5 R{1,22} + 5 R{1,28}
   + 5 R{1,30} + 5 R{1,33} + 5 R{1,37} + 5 R{3,2} + 5 R{3,3} + 5 R{3,4}
   + 5 R{3,6} + 5 R{3,8} + 5 R{3,9} + 5 R{3,10} + 5 R{3,14} + 5 R{3,15}
   + 5 R{3,18} + 5 R{3,20} + 5 R{3,24} + 5 R{3,26} + 5 R{3,27} + 5 R{3,28}
   + 5 R{3,29} + 5 R{3,31} + 5 R{3,33} + 5 R{3,40} + 5 R{3,42} + 5 R{3,44}
   + 5 R{4,4} + 5 R{4,6} + 5 R{4,8} + 2 R{4,9} + 5 R{4,10} + 5 R{4,12}
   + 5 R{4,14} + 5 R{4,15} + 5 R{4,16} + 5 R{4,17} + 5 R{4,21} + 5 R{4,23}
   + 5 R{4,25} + 5 R{4,26} + 5 R{4,27} + 5 R{4,28} + 5 R{4,30} + 5 R{4,32}
   + 5 R{4,33} + 5 R{4,35} + 5 R{4,36} + 5 R{6,5} + 5 R{6,8} + 5 R{6,9}
   + 5 R{6,10} + 5 R{6,11} + 5 R{6,13} + 5 R{6,18} + 5 R{6,19} + 5 R{6,20}
   + 5 R{6,22} + 5 R{6,24} + 5 R{6,29} + 5 R{6,30} + 5 R{6,32} + 5 R{6,34}
   + 5 R{6,35} <= 5
 R2_42: 4 R{2,1} + 4 R{2,2} + 4 R{2,3} + 4 R{2,4} + 4 R{2,5} + 4 R{2,7}
   + 4 R{2,8} + 4 R{2,9} + 4 R{2,10} + 4 R{2,11} + 4 R{2,13} + 4 R{2,14}
   + 4 R{2,15} + 4 R{2,16} + 4 R{2,18} + 4 R{2,28} + 4 R{2,32} <= 4
 R2_43: <= 0
 R2_44: <= 0
 R2_45: <= 0
 R2_46: 9 R{0,10} + 9 R{0,11} + 9 R{0,14} + 9 R{0,15} + 9 R{0,18}
   + 9 R{0,20} + 9 R{0,21} + 9 R{0,22} + 9 R{0,24} + 9 R{0,28} + 9 R{0,30}
   + 9 R{0,32} + 9 R{0,35} + 9 R{0,36} + 9 R{0,38} + 9 R{0,40} + 9 R{0,41}
   + 9 R{0,43} + 9 R{0,44} + 9 R{3,11} + 9 R{3,24} + 9 R{3,25} + 9 R{3,30}
   + 9 R{3,32} + 9 R{3,40} + 9 R{3,43} + 9 R{4,11} + 9 R{4,12} + 9 R{4,13}
   + 9 R{4,14} + 9 R{4,16} + 9 R{4,25} + 9 R{4,26} + 9 R{4,27} + 9 R{4,31}
   <= 9
 R2_47: 7 R{0,0} + 7 R{0,1} + 7 R{0,2} + 7 R{0,7} + 7 R{0,16} + 7 R{0,23}
   + 7 R{0,33} + 7 R{0,42} + 7 R{0,45} + 7 R{5,1} + 7 R{5,2} + 7 R{5,3}
   + 7 R{5,5} + 7 R{5,6} + 7 R{5,10} + 7 R{5,15} + 7 R{5,16} + 7 R{5,17}
   + 7 R{5,20} + 7 R{5,25} + 7 R{5,28} <= 7
 R2_48: 4 R{0,11} + 4 R{0,28} + 4 R{0,36} + 4 R{0,44} + 4 R{4,1} + 4 R{4,2}
   + 4 R{4,3} + 4 R{4,4} + 4 R{4,5} + 4 R{4,6} + 4 R{4,7} + 4 R{4,8}
   + 4 R{4,9} + 4 R{4,10} + 4 R{4,12} + 4 R{4,15} + 4 R{4,18} + 4 R{4,20}
   + 4 R{4,21} + 4 R{4,22} + 4 R{4,23} + 4 R{4,25} + 4 R{4,29} + 4 R{4,30}
   + 4 R{4,35} <= 4
 R2_49: <= 0
 R2_50: <= 0
 R2_51: 11 R{1,23} + 11 R{1,25} + 11 R{1,29} + 11 R{1,31} + 11 R{1,32}
   + 11 R{1,33} + 11 R{1,35} + 11 R{1,38} + 11 R{1,39} + 11 R{4,1}
   + 8 R{4,21} + 11 R{6,20} + 11 R{6,29} + 11 R{6,36} <= 11
 R2_52: 10 R{4,20} + 10 R{4,22} + 10 R{4,26} + 10 R{4,28} + 10 R{4,31}
   + 10 R{4,32} + 10 R{4,33} + 10 R{4,36} <= 10
 R2_53: 13 R{4,1} + 13 R{4,2} + 13 R{4,3} + 13 R{4,5} + 13 R{4,8}
   + 13 R{4,9} + 13 R{4,11} + 13 R{4,13} + 13 R{4,20} + 13 R{4,21}
   + 13 R{4,31} <= 13
 R2_54: 9 R{1,17} + 9 R{3,1} + 9 R{3,2} + 9 R{3,3} + 9 R{3,4} + 9 R{3,5}
   + 9 R{3,6} + 9 R{3,7} + 9 R{3,8} + 9 R{3,9} + 9 R{3,12} + 9 R{3,13}
   + 9 R{3,14} + 9 R{3,15} + 9 R{3,18} + 9 R{3,20} + 9 R{3,22} + 9 R{3,26}
   + 9 R{3,27} + 9 R{3,28} + 9 R{3,29} + 9 R{3,31} + 9 R{3,34} + 9 R{3,35}
   + 9 R{3,39} + 9 R{3,41} + 9 R{3,42} + 9 R{3,44} + 9 R{4,28} + 9 R{4,36}
   <= 9
 R2_55: 8 R{1,10} + 8 R{1,13} + 8 R{1,16} + 8 R{1,23} + 8 R{1,25}
   + 8 R{1,31} + 8 R{1,32} + 8 R{1,39} + 8 R{6,1} + 8 R{6,2} + 8 R{6,3}
   + 8 R{6,5} + 8 R{6,6} + 8 R{6,7} + 8 R{6,8} + 8 R{6,9} + 8 R{6,10}
   + 8 R{6,11} + 8 R{6,14} + 8 R{6,16} + 8 R{6,17} + 8 R{6,18} + 8 R{6,19}
   + 8 R{6,20} + 8 R{6,21} + 8 R{6,23} + 8 R{6,24} + 8 R{6,25} + 8 R{6,26}
   + 8 R{6,27} + 8 R{6,29} + 8 R{6,30} + 8 R{6,32} + 8 R{6,33} + 8 R{6,35}
   + 8 R{6,36} + 8 R{6,38} + 8 R{6,39} <= 8
 R2_56: 6 R{0,1} + 6 R{0,2} + 6 R{0,6} + 6 R{0,12} + 6 R{0,13} + 6 R{0,16}
   + 6 R{0,23} + 6 R{0,29} + 6 R{0,46} + 6 R{1,9} + 6 R{1,11} + 6 R{1,20}
   + 6 R{3,2} + 6 R{3,3} + 6 R{3,5} + 6 R{3,7} + 6 R{3,8} + 6 R{3,9}
   + 6 R{3,13} + 6 R{3,20} + 6 R{3,26} + 6 R{3,28} + 6 R{3,29} + 6 R{3,31}
   + 6 R{3,34} + 6 R{3,39} + 6 R{3,41} + 6 R{3,44} + 6 R{4,7} + 6 R{4,10}
   + 6 R{4,19} + 6 R{4,24} + 6 R{6,6} + 6 R{6,25} + 6 R{6,33} + 6 R{6,39}
   <= 6
 R2_57: <= 0
 R2_58: 15 R{3,19} <= 15
 R2_59: 10 R{0,41} + 10 R{1,11} + 10 R{3,13} + 10 R{3,34} + 10 R{3,39}
   + 10 R{3,41} + 10 R{4,6} + 10 R{4,18} + 10 R{4,22} + 10 R{4,29}
   + 10 R{4,34} + 10 R{6,26} + 10 R{6,36} <= 10
 R2_60: <= 0
 R2_61: 9 R{0,11} + 9 R{0,14} + 9 R{0,19} + 9 R{0,20} + 9 R{0,22}
   + 9 R{0,24} + 9 R{0,28} + 9 R{0,30} + 9 R{0,36} + 9 R{0,38} + 9 R{0,40}
   + 9 R{0,41} + 9 R{0,44} + 9 R{3,4} + 9 R{3,6} + 9 R{3,10} + 9 R{3,15}
   + 9 R{3,17} + 9 R{3,24} + 9 R{3,25} + 9 R{3,27} + 9 R{3,30} + 9 R{3,32}
   + 9 R{3,33} + 9 R{3,37} + 9 R{3,38} + 9 R{3,40} + 9 R{3,42} + 9 R{4,14}
   + 9 R{4,28} + 9 R{4,33} + 9 R{4,36} + 9 R{6,32} <= 9
 R2_62: <= 0
 R2_63: <= 0
 R2_64: <= 0
 R2_65: <= 5
 R2_66: 7 R{1,17} + 7 R{1,20} + 7 R{3,36} + 7 R{5,12} + 7 R{6,1} + 7 R{6,5}
   + 7 R{6,6} + 7 R{6,7} + 7 R{6,8} + 7 R{6,9} + 7 R{6,10} + 7 R{6,14}
   + 7 R{6,18} + 7 R{6,21} + 7 R{6,26} + 7 R{6,38} <= 7
 R2_67: 3 R{0,37} + 3 R{0,43} + 3 R{3,2} + 3 R{3,3} + 3 R{3,4} + 3 R{3,5}
   + 3 R{3,7} + 3 R{3,8} + 3 R{3,11} + 3 R{3,20} + 3 R{3,26} + 3 R{3,27}
   + 3 R{3,28} + 3 R{3,29} + 3 R{3,30} + 3 R{3,31} + 3 R{3,41} + 3 R{3,42}
   + 3 R{3,43} + 3 R{3,44} + 3 R{6,7} + 3 R{6,19} + 3 R{6,25} + 3 R{6,38}
   <= 3
 R2_68: 6 R{0,25} + 6 R{0,26} + 6 R{2,19} + 6 R{5,21} + 6 R{5,29}
   + 6 R{6,1} + 6 R{6,2} + 6 R{6,3} + 6 R{6,4} + 6 R{6,6} + 6 R{6,7}
   + 6 R{6,8} + 6 R{6,9} + 6 R{6,10} + 6 R{6,11} + 6 R{6,14} + 6 R{6,16}
   + 6 R{6,18} + 6 R{6,19} + 6 R{6,21} + 6 R{6,23} + 6 R{6,24} + 6 R{6,26}
   + 6 R{6,27} + 6 R{6,29} + 6 R{6,30} + 6 R{6,32} + 6 R{6,34} + 6 R{6,35}
   + 6 R{6,36} + 6 R{6,37} <= 6
 R2_69: 7 R{0,0} + 7 R{0,1} + 7 R{0,2} + 7 R{0,6} + 7 R{0,7} + 7 R{0,8}
   + 7 R{0,11} + 7 R{0,12} + 7 R{0,13} + 7 R{0,14} + 7 R{0,15} + 7 R{0,16}
   + 7 R{0,17} + 7 R{0,19} + 7 R{0,21} + 7 R{0,23} + 7 R{0,24} + 7 R{0,27}
   + 7 R{0,28} + 7 R{0,29} + 7 R{0,34} + 7 R{0,35} + 7 R{0,36} + 7 R{0,37}
   + 7 R{0,38} + 7 R{0,40} + 7 R{0,42} + 7 R{0,45} + 7 R{0,46} + 7 R{3,25}
   + 7 R{4,1} + 7 R{4,2} + 7 R{4,3} + 7 R{4,4} + 7 R{4,5} + 7 R{4,6}
   + 7 R{4,7} + 7 R{4,8} + 7 R{4,9} + 7 R{4,11} + 7 R{4,13} + 7 R{4,15}
   + 7 R{4,17} + 7 R{4,18} + 7 R{4,19} + 7 R{4,20} + 7 R{4,21} + 7 R{4,22}
   + 7 R{4,23} + 7 R{4,24} + 7 R{4,29} + 7 R{4,32} + 7 R{4,35} <= 7
 R2_70: 11 R{1,1} + 11 R{1,2} + 11 R{1,3} <= 11
 R2_71: 7 R{0,18} + 7 R{1,20} + 7 R{1,22} + 7 R{3,1} + 7 R{3,2} + 7 R{3,3}
   + 7 R{3,4} + 7 R{3,5} + 7 R{3,6} + 7 R{3,9} + 7 R{3,10} + 7 R{3,11}
   + 7 R{3,12} + 7 R{3,13} + 7 R{3,14} + 7 R{3,15} + 7 R{3,17} + 7 R{3,20}
   + 7 R{3,21} + 7 R{3,22} + 7 R{3,24} + 7 R{3,26} + 7 R{3,30} + 7 R{3,32}
   + 7 R{3,33} + 7 R{3,37} + 7 R{3,40} + 7 R{3,41} + 7 R{3,43} + 7 R{6,25}
   <= 7
 R2_72: <= 0
 R2_73: 11 R{0,0} + 11 R{0,1} + 11 R{0,2} + 11 R{0,6} + 11 R{0,7}
   + 11 R{0,8} + 11 R{0,10} + 11 R{0,12} + 11 R{0,13} + 11 R{0,15}
   + 11 R{0,16} + 11 R{0,17} + 11 R{0,18} + 11 R{0,19} + 11 R{0,21}
   + 11 R{0,23} + 11 R{0,24} + 11 R{0,25} + 11 R{0,26} + 11 R{0,27}
   + 11 R{0,29} + 11 R{0,31} + 11 R{0,32} + 11 R{0,33} + 11 R{0,34}
   + 11 R{0,35} + 11 R{0,38} + 11 R{0,40} + 11 R{0,42} + 11 R{0,45}
   + 11 R{0,46} <= 11
 R2_74: 5 R{5,1} + 5 R{5,3} + 5 R{5,5} + 5 R{5,25} + 5 R{5,27} + 5 R{5,28}
   <= 5
 R2_75: 8 R{6,1} + 8 R{6,2} + 8 R{6,4} + 8 R{6,6} + 8 R{6,7} + 8 R{6,9}
   + 8 R{6,10} + 8 R{6,12} + 8 R{6,14} + 8 R{6,16} + 8 R{6,23} + 8 R{6,26}
   + 8 R{6,29} + 8 R{6,30} + 8 R{6,33} + 8 R{6,37} + 8 R{6,38} <= 8
 R2_76: 12 R{0,4} + 12 R{0,5} + 12 R{0,9} + 12 R{0,39} + 12 R{1,7}
   + 12 R{1,20} + 12 R{1,24} + 12 R{1,40} + 12 R{3,3} + 12 R{3,6}
   + 12 R{3,9} + 12 R{3,10} + 12 R{3,13} + 12 R{3,14} + 12 R{3,17}
   + 12 R{3,21} + 12 R{3,28} + 12 R{3,29} + 12 R{3,33} + 12 R{3,34}
   + 12 R{3,36} + 12 R{3,39} + 12 R{3,41} + 12 R{5,16} + 12 R{5,25}
   + 12 R{5,27} + 12 R{5,28} <= 12
 R2_77: 7 R{0,1} + 7 R{0,2} + 7 R{0,5} + 7 R{0,6} + 7 R{0,10} + 7 R{0,12}
   + 7 R{0,17} + 7 R{0,18} + 7 R{0,25} + 7 R{0,27} + 7 R{0,28} + 7 R{0,32}
   + 7 R{0,34} + 7 R{0,35} + 7 R{0,37} + 7 R{0,39} + 7 R{0,47} + 7 R{1,2}
   + 7 R{1,3} + 7 R{1,5} + 7 R{1,8} + 7 R{1,9} + 7 R{1,10} + 7 R{1,11}
   + 7 R{1,13} + 7 R{1,14} + 7 R{1,15} + 7 R{1,16} + 7 R{1,17} + 7 R{1,18}
   + 7 R{1,19} + 7 R{1,21} + 7 R{1,22} + 7 R{1,24} + 7 R{1,26} + 7 R{1,27}
   + 7 R{1,28} + 7 R{1,31} + 7 R{1,32} + 7 R{1,34} + 7 R{1,36} + 7 R{1,40}
   + 7 R{2,2} + 7 R{2,3} + 7 R{2,4} + 7 R{2,7} + 7 R{2,9} + 7 R{2,10}
   + 7 R{2,13} + 7 R{2,14} + 7 R{2,15} + 7 R{2,17} + 7 R{2,19} + 7 R{2,20}
   + 7 R{2,21} + 7 R{2,22} + 7 R{2,23} + 7 R{2,24} + 7 R{2,25} + 7 R{2,26}
   + 7 R{2,28} + 7 R{2,29} + 7 R{2,31} + 7 R{3,5} + 7 R{3,7} + 7 R{3,8}
   + 7 R{3,12} + 7 R{3,15} + 7 R{3,18} + 7 R{3,20} + 7 R{3,22} + 7 R{3,24}
   + 7 R{3,28} + 7 R{3,29} + 7 R{3,31} + 7 R{3,34} + 7 R{3,35} + 7 R{3,37}
   + 7 R{3,39} + 7 R{3,42} + 7 R{3,44} + 7 R{4,2} + 7 R{4,3} + 7 R{4,5}
   + 7 R{4,8} + 7 R{4,17} + 7 R{4,19} + 7 R{4,23} + 7 R{4,25} + 7 R{4,26}
   + 7 R{4,28} + 7 R{5,2} + 7 R{5,4} + 7 R{5,7} + 7 R{5,10} + 7 R{5,11}
   + 7 R{5,13} + 7 R{5,14} + 7 R{5,16} + 7 R{5,17} + 7 R{5,18} + 7 R{5,20}
   + 7 R{5,22} + 7 R{5,23} + 7 R{5,24} + 7 R{5,26} + 7 R{6,2} + 7 R{6,3}
   + 7 R{6,4} + 7 R{6,7} + 7 R{6,8} + 7 R{6,10} + 7 R{6,16} + 7 R{6,18}
   + 7 R{6,19} + 7 R{6,22} + 7 R{6,23} + 7 R{6,24} + 7 R{6,28} + 7 R{6,31}
   + 7 R{6,33} + 7 R{6,37} <= 7
Bounds
End
